1 -1 2 0
1 1 -3 0
1 1 -4 0
1 1 -5 0
1 1 6 0
1 -2 -7 0
1 2 8 0
1 -2 -3 0
1 -2 1 0
1 -2 -4 0
1 -2 -6 0
1 9 -10 0
1 9 11 0
1 9 12 0
1 -9 3 0
1 9 -13 0
1 -9 -14 0
1 9 15 0
1 9 4 0
1 -9 6 0
1 -12 -10 0
1 12 11 0
1 12 -16 0
1 -12 8 0
1 12 -3 0
1 -12 -13 0
1 -12 -14 0
1 12 -9 0
1 -12 4 0
1 12 6 0
1 -3 -17 0
1 -3 -18 0
1 3 -19 0
1 -3 2 0
1 -3 -20 0
1 3 21 0
1 3 -22 0
1 -3 -9 0
1 3 1 0
1 3 6 0
1 6 -23 0
1 6 17 0
1 -6 -18 0
1 6 -12 0
1 6 2 0
1 -6 -3 0
1 -6 24 0
1 -6 21 0
1 -6 -22 0
1 6 9 0
1 6 1 0
1 -8 17 0
1 -8 25 0
1 -8 12 0
1 -8 -2 0
1 8 -26 0
1 8 -27 0
1 8 -9 0
1 8 -1 0
1 -8 -4 0
1 -4 -17 0
1 4 25 0
1 -4 -28 0
1 4 12 0
1 4 2 0
1 4 -8 0
1 -4 -24 0
1 4 -27 0
1 4 29 0
1 -4 9 0
1 -4 -1 0
1 -4 -30 0
1 22 10 0
1 22 11 0
1 -22 19 0
1 22 -13 0
1 -22 14 0
1 22 29 0
1 -22 -6 0
1 19 10 0
1 -19 11 0
1 19 -3 0
1 -19 -13 0
1 -19 -14 0
1 -19 6 0
1 -21 11 0
1 21 18 0
1 21 31 0
1 -21 -32 0
1 -21 -3 0
1 -21 13 0
1 -21 -14 0
1 -21 -33 0
1 -21 27 0
1 21 -6 0
1 -18 10 0
1 -18 -11 0
1 -18 31 0
1 -18 25 0
1 -18 -32 0
1 -18 3 0
1 18 -13 0
1 18 14 0
1 18 21 0
1 -18 -33 0
1 -18 -34 0
1 18 -6 0
1 -14 35 0
1 -14 11 0
1 14 -18 0
1 -14 19 0
1 14 -12 0
1 -14 -36 0
1 -14 -37 0
1 14 38 0
1 -14 39 0
1 -14 21 0
1 -14 -22 0
1 14 9 0
1 -14 40 0
1 11 35 0
1 -11 -41 0
1 -11 -42 0
1 11 18 0
1 -11 19 0
1 11 -12 0
1 11 36 0
1 -11 -37 0
1 11 -21 0
1 -11 -9 0
1 -11 40 0
1 -13 10 0
1 13 -43 0
1 -13 17 0
1 -13 18 0
1 -13 12 0
1 13 36 0
1 -13 44 0
1 13 45 0
1 -13 21 0
1 -13 -22 0
1 -13 9 0
1 13 40 0
1 10 43 0
1 10 -17 0
1 10 -18 0
1 10 -19 0
1 10 12 0
1 10 -36 0
1 10 -44 0
1 10 24 0
1 -10 22 0
1 10 9 0
1 -10 -40 0
1 -38 -41 0
1 -38 -11 0
1 -38 -31 0
1 38 -32 0
1 38 -14 0
1 38 -24 0
1 -38 -33 0
1 38 -34 0
1 -41 11 0
1 41 31 0
1 -41 32 0
1 41 38 0
1 41 14 0
1 41 33 0
1 41 34 0
1 -37 35 0
1 -37 11 0
1 37 -31 0
1 -37 44 0
1 -37 33 0
1 -37 34 0
1 -35 -43 0
1 35 -11 0
1 -35 31 0
1 35 -32 0
1 -35 -37 0
1 35 14 0
1 -35 33 0
1 -35 -34 0
1 34 -35 0
1 -34 -41 0
1 34 -18 0
1 34 32 0
1 -34 38 0
1 34 -21 0
1 34 -46 0
1 32 -35 0
1 -32 -41 0
1 32 47 0
1 -32 -48 0
1 -32 37 0
1 32 38 0
1 -32 -21 0
1 32 49 0
1 -33 35 0
1 -33 41 0
1 -33 31 0
1 33 -48 0
1 -33 50 0
1 33 36 0
1 -33 37 0
1 33 38 0
1 33 21 0
1 -33 -51 0
1 33 -49 0
1 -33 -52 0
1 33 40 0
1 -31 -35 0
1 -31 -41 0
1 31 18 0
1 31 -53 0
1 -31 -50 0
1 -31 36 0
1 -31 -37 0
1 31 38 0
1 -31 21 0
1 31 -33 0
1 31 49 0
1 -31 -52 0
1 31 40 0
1 5 54 0
1 -5 55 0
1 5 -56 0
1 5 57 0
1 5 -1 0
1 -5 -58 0
1 7 -54 0
1 -7 55 0
1 7 -2 0
1 7 -56 0
1 7 57 0
1 7 5 0
1 -15 54 0
1 15 -55 0
1 15 59 0
1 15 -16 0
1 -15 56 0
1 15 -57 0
1 15 60 0
1 15 -61 0
1 16 -54 0
1 -16 -55 0
1 16 -59 0
1 16 -62 0
1 16 -12 0
1 16 -63 0
1 16 57 0
1 -16 64 0
1 -16 60 0
1 -16 15 0
1 -55 -65 0
1 55 -25 0
1 -55 66 0
1 -55 28 0
1 55 -16 0
1 -55 -7 0
1 -55 57 0
1 55 -67 0
1 55 -27 0
1 -55 29 0
1 -55 15 0
1 55 5 0
1 57 -55 0
1 -57 -65 0
1 -57 -25 0
1 57 28 0
1 -57 -16 0
1 -57 -7 0
1 -57 -68 0
1 -57 -67 0
1 57 -27 0
1 57 29 0
1 -57 15 0
1 57 5 0
1 54 69 0
1 54 65 0
1 54 -70 0
1 -54 -71 0
1 54 -16 0
1 54 7 0
1 54 56 0
1 54 67 0
1 -54 72 0
1 -54 -73 0
1 54 15 0
1 54 -5 0
1 -56 -54 0
1 -56 -65 0
1 -56 70 0
1 -56 -71 0
1 -56 -16 0
1 -56 7 0
1 56 -74 0
1 -56 -67 0
1 -56 72 0
1 -56 -73 0
1 -56 -15 0
1 56 -5 0
1 -29 59 0
1 29 28 0
1 -29 57 0
1 29 64 0
1 -29 60 0
1 29 22 0
1 29 73 0
1 -29 -4 0
1 -28 55 0
1 -28 -59 0
1 -28 19 0
1 28 62 0
1 -28 71 0
1 -28 -57 0
1 -28 -64 0
1 -28 -60 0
1 -28 -29 0
1 28 4 0
1 -27 55 0
1 -27 25 0
1 -27 -59 0
1 27 62 0
1 -27 -75 0
1 27 76 0
1 27 -8 0
1 -27 -57 0
1 27 64 0
1 27 21 0
1 -27 -72 0
1 27 77 0
1 -27 78 0
1 -27 -4 0
1 -25 -60 0
1 25 -55 0
1 -25 -18 0
1 25 -59 0
1 -25 70 0
1 25 62 0
1 -25 -75 0
1 -25 -76 0
1 -25 57 0
1 25 64 0
1 25 27 0
1 25 -78 0
1 -25 -4 0
1 62 79 0
1 62 -60 0
1 -62 43 0
1 62 -17 0
1 -62 -25 0
1 -62 -28 0
1 -62 -80 0
1 62 16 0
1 62 -81 0
1 -62 44 0
1 -62 24 0
1 62 27 0
1 -62 29 0
1 -62 15 0
1 60 -79 0
1 60 43 0
1 -60 -17 0
1 60 25 0
1 -60 -28 0
1 60 -62 0
1 60 -16 0
1 -60 81 0
1 60 -24 0
1 -60 27 0
1 -60 -82 0
1 -60 -29 0
1 -60 -15 0
1 59 -79 0
1 -59 83 0
1 59 -65 0
1 -59 -25 0
1 -59 84 0
1 -59 28 0
1 -59 -16 0
1 59 81 0
1 -59 64 0
1 -59 67 0
1 -59 -27 0
1 -59 29 0
1 -59 15 0
1 -64 -79 0
1 -64 -83 0
1 -64 -65 0
1 -64 -25 0
1 64 59 0
1 64 -28 0
1 -64 -16 0
1 -64 81 0
1 64 -85 0
1 64 -67 0
1 64 -27 0
1 64 86 0
1 -64 29 0
1 -64 15 0
1 -24 17 0
1 24 -62 0
1 24 75 0
1 24 76 0
1 24 8 0
1 -24 3 0
1 24 -13 0
1 24 38 0
1 24 -77 0
1 24 78 0
1 -24 6 0
1 17 10 0
1 17 41 0
1 -17 -65 0
1 17 62 0
1 17 75 0
1 -17 76 0
1 -17 8 0
1 -17 -13 0
1 -17 24 0
1 -17 60 0
1 -17 77 0
1 -17 -78 0
1 -17 4 0
1 -17 -6 0
1 44 -23 0
1 44 10 0
1 -44 -43 0
1 44 -62 0
1 -44 75 0
1 44 -76 0
1 44 -26 0
1 44 13 0
1 -44 -37 0
1 -44 85 0
1 -44 77 0
1 -44 78 0
1 -44 -30 0
1 -43 23 0
1 43 -35 0
1 -43 -10 0
1 43 -62 0
1 -43 -75 0
1 43 76 0
1 -43 -26 0
1 43 20 0
1 -43 -44 0
1 43 -77 0
1 -43 78 0
1 -43 -30 0
1 76 -43 0
1 76 17 0
1 -76 50 0
1 -76 36 0
1 76 44 0
1 76 -24 0
1 -76 27 0
1 -76 -78 0
1 76 -87 0
1 76 52 0
1 -76 -40 0
1 -78 17 0
1 -78 25 0
1 -78 76 0
1 -78 -88 0
1 78 -36 0
1 -78 -89 0
1 78 24 0
1 78 27 0
1 -78 87 0
1 -78 52 0
1 78 40 0
1 -75 79 0
1 75 -43 0
1 -75 -17 0
1 -75 -25 0
1 75 -90 0
1 -75 -88 0
1 -75 -91 0
1 75 -81 0
1 75 44 0
1 75 24 0
1 75 -27 0
1 75 77 0
1 -75 92 0
1 -77 -79 0
1 -77 17 0
1 -77 25 0
1 -77 75 0
1 77 -88 0
1 77 91 0
1 -77 44 0
1 -77 -24 0
1 77 -27 0
1 -77 -87 0
1 -77 -92 0
1 -36 -23 0
1 36 -10 0
1 -36 11 0
1 36 76 0
1 36 26 0
1 36 -81 0
1 36 20 0
1 36 14 0
1 36 33 0
1 -36 -78 0
1 -36 -30 0
1 -36 -40 0
1 40 79 0
1 -40 -10 0
1 40 11 0
1 40 31 0
1 40 -76 0
1 -40 -26 0
1 -40 -20 0
1 40 13 0
1 -40 -30 0
1 -50 23 0
1 50 -93 0
1 50 -42 0
1 -50 31 0
1 -50 -76 0
1 50 -91 0
1 50 -26 0
1 -50 20 0
1 50 45 0
1 50 39 0
1 50 -33 0
1 50 -78 0
1 -50 52 0
1 -50 -30 0
1 -52 -23 0
1 52 93 0
1 -52 42 0
1 -52 31 0
1 52 76 0
1 52 50 0
1 -52 -26 0
1 -52 -20 0
1 -52 45 0
1 -52 -39 0
1 -52 33 0
1 -52 -30 0
1 -52 78 0
1 52 92 0
1 -20 23 0
1 -20 43 0
1 -20 -94 0
1 20 95 0
1 20 48 0
1 -20 -50 0
1 20 -3 0
1 -20 -44 0
1 -20 -96 0
1 20 97 0
1 -20 49 0
1 20 -52 0
1 -20 40 0
1 -23 98 0
1 -23 -43 0
1 23 94 0
1 23 95 0
1 23 -48 0
1 -23 -50 0
1 23 44 0
1 23 6 0
1 -23 97 0
1 23 -49 0
1 -23 40 0
1 26 -43 0
1 -26 -94 0
1 -26 99 0
1 26 88 0
1 -26 -8 0
1 -26 -36 0
1 26 -100 0
1 -26 44 0
1 26 96 0
1 26 -101 0
1 26 -87 0
1 -26 -52 0
1 26 -30 0
1 26 40 0
1 -30 43 0
1 -30 99 0
1 30 -88 0
1 -30 50 0
1 30 26 0
1 30 -36 0
1 30 44 0
1 30 4 0
1 -30 96 0
1 30 52 0
1 30 102 0
1 30 40 0
1 48 -23 0
1 48 93 0
1 -48 -32 0
1 -48 -88 0
1 -48 -20 0
1 -48 -45 0
1 48 -39 0
1 -48 33 0
1 48 34 0
1 -48 49 0
1 -49 23 0
1 49 93 0
1 -49 -42 0
1 49 -31 0
1 49 -32 0
1 -49 48 0
1 -49 -20 0
1 49 39 0
1 49 -33 0
1 -49 -34 0
1 -49 -87 0
1 -95 23 0
1 95 93 0
1 -95 -53 0
1 95 97 0
1 -95 -47 0
1 -95 -99 0
1 -95 45 0
1 95 -39 0
1 95 51 0
1 95 46 0
1 97 -23 0
1 -97 -93 0
1 -97 42 0
1 97 53 0
1 -97 -47 0
1 97 -20 0
1 97 45 0
1 -97 39 0
1 -97 -51 0
1 97 46 0
1 -97 -101 0
1 39 -42 0
1 39 103 0
1 -39 104 0
1 -39 95 0
1 39 -48 0
1 -39 50 0
1 -39 -105 0
1 39 -14 0
1 -39 106 0
1 -39 107 0
1 39 108 0
1 39 -97 0
1 39 -49 0
1 39 -52 0
1 -42 -11 0
1 -42 -109 0
1 42 103 0
1 -42 -104 0
1 -42 95 0
1 -42 48 0
1 -42 -50 0
1 42 -106 0
1 -42 39 0
1 -42 108 0
1 -42 -97 0
1 -42 49 0
1 42 -52 0
1 45 109 0
1 -45 -110 0
1 45 -94 0
1 -45 -95 0
1 45 -48 0
1 -45 -50 0
1 45 -13 0
1 -45 105 0
1 -45 -111 0
1 -45 -96 0
1 -45 -97 0
1 -45 49 0
1 45 -52 0
1 93 -10 0
1 -93 -112 0
1 93 109 0
1 -93 110 0
1 -93 -94 0
1 93 95 0
1 -93 -48 0
1 -93 50 0
1 93 105 0
1 -93 45 0
1 -93 -111 0
1 93 96 0
1 93 -97 0
1 -93 52 0
1 104 42 0
1 104 -53 0
1 -104 47 0
1 104 -94 0
1 -104 -51 0
1 104 39 0
1 104 108 0
1 104 -46 0
1 -108 -42 0
1 -108 53 0
1 108 -104 0
1 108 39 0
1 -108 -51 0
1 -108 -96 0
1 108 46 0
1 -103 53 0
1 103 110 0
1 103 47 0
1 103 106 0
1 103 39 0
1 103 51 0
1 -103 -46 0
1 106 -103 0
1 -106 -53 0
1 106 39 0
1 -106 -111 0
1 -106 51 0
1 -106 46 0
1 -46 113 0
1 46 103 0
1 -46 104 0
1 -46 47 0
1 -46 -95 0
1 46 -106 0
1 46 -108 0
1 -46 34 0
1 46 -97 0
1 -46 -114 0
1 47 -113 0
1 47 103 0
1 47 32 0
1 47 95 0
1 47 -115 0
1 -47 -106 0
1 47 108 0
1 -47 -97 0
1 51 -113 0
1 51 116 0
1 -51 -109 0
1 51 -103 0
1 51 -53 0
1 -51 104 0
1 51 95 0
1 51 -115 0
1 51 -117 0
1 51 -105 0
1 51 -106 0
1 51 33 0
1 -51 108 0
1 51 118 0
1 51 -97 0
1 53 -113 0
1 53 -116 0
1 -53 -109 0
1 53 -31 0
1 53 103 0
1 -53 104 0
1 53 -95 0
1 -53 -115 0
1 -53 -117 0
1 -53 51 0
1 53 105 0
1 53 108 0
1 -53 -97 0
1 58 119 0
1 -58 120 0
1 58 121 0
1 58 -122 0
1 -58 123 0
1 121 119 0
1 -121 120 0
1 -121 -7 0
1 -121 -122 0
1 -61 -119 0
1 -61 -120 0
1 61 63 0
1 -61 -124 0
1 61 123 0
1 61 125 0
1 61 -15 0
1 61 -126 0
1 63 -119 0
1 63 127 0
1 63 -16 0
1 -63 124 0
1 63 122 0
1 -63 -126 0
1 -63 -123 0
1 -63 -125 0
1 -63 61 0
1 123 -70 0
1 123 -120 0
1 -123 71 0
1 -123 -63 0
1 -123 121 0
1 123 -72 0
1 123 -128 0
1 123 73 0
1 -123 61 0
1 123 -58 0
1 120 -123 0
1 -120 -70 0
1 120 -129 0
1 120 71 0
1 -120 121 0
1 120 -72 0
1 120 -73 0
1 120 61 0
1 -120 58 0
1 122 -130 0
1 122 119 0
1 -122 63 0
1 122 121 0
1 -122 -58 0
1 -119 -131 0
1 -119 63 0
1 -119 -121 0
1 -119 -122 0
1 -119 61 0
1 -119 -58 0
1 73 -54 0
1 -73 120 0
1 73 71 0
1 73 -127 0
1 73 124 0
1 -73 -56 0
1 73 123 0
1 -73 -29 0
1 -73 125 0
1 -73 126 0
1 71 54 0
1 71 120 0
1 71 28 0
1 -71 127 0
1 -71 -124 0
1 71 -125 0
1 -71 -123 0
1 -71 73 0
1 71 -126 0
1 72 -132 0
1 72 54 0
1 72 -70 0
1 -72 120 0
1 72 -127 0
1 -72 -124 0
1 -72 -133 0
1 -72 -134 0
1 72 56 0
1 -72 27 0
1 72 123 0
1 -72 125 0
1 72 -126 0
1 72 135 0
1 70 132 0
1 70 -54 0
1 -70 123 0
1 70 -25 0
1 70 -120 0
1 70 -127 0
1 70 -124 0
1 70 -133 0
1 -70 134 0
1 70 -56 0
1 70 72 0
1 -70 126 0
1 70 135 0
1 -126 -136 0
1 126 -65 0
1 -126 -70 0
1 -126 -71 0
1 -126 -63 0
1 -126 124 0
1 -126 -137 0
1 126 85 0
1 -126 72 0
1 -126 61 0
1 124 -136 0
1 124 -83 0
1 -124 -65 0
1 -124 70 0
1 124 -71 0
1 124 -63 0
1 124 -138 0
1 124 137 0
1 124 85 0
1 124 67 0
1 124 126 0
1 124 -72 0
1 124 61 0
1 125 -136 0
1 125 70 0
1 -125 71 0
1 -125 -127 0
1 125 63 0
1 125 73 0
1 -125 -139 0
1 125 -61 0
1 -127 136 0
1 -127 -70 0
1 127 -71 0
1 127 140 0
1 -127 63 0
1 -127 -137 0
1 -127 -73 0
1 127 61 0
1 67 -132 0
1 67 -54 0
1 -67 55 0
1 -67 65 0
1 -67 133 0
1 67 57 0
1 -67 -64 0
1 67 -126 0
1 -67 -135 0
1 65 132 0
1 -65 -54 0
1 65 -17 0
1 -65 59 0
1 65 -124 0
1 65 133 0
1 -65 134 0
1 -65 56 0
1 -65 -57 0
1 65 64 0
1 -65 67 0
1 -65 -126 0
1 65 135 0
1 -85 132 0
1 -85 83 0
1 85 69 0
1 -85 -66 0
1 -85 -59 0
1 -85 124 0
1 85 133 0
1 85 -134 0
1 -85 -74 0
1 85 44 0
1 85 68 0
1 85 -64 0
1 -85 -126 0
1 85 135 0
1 -83 132 0
1 -83 -43 0
1 83 -69 0
1 -83 59 0
1 83 -124 0
1 83 -133 0
1 83 -134 0
1 -83 -74 0
1 -83 -85 0
1 83 -64 0
1 83 -68 0
1 83 126 0
1 -83 -135 0
1 132 79 0
1 132 141 0
1 -132 -83 0
1 132 -65 0
1 132 70 0
1 -132 -142 0
1 -132 -91 0
1 -132 -134 0
1 -132 81 0
1 -132 85 0
1 -132 -67 0
1 132 -72 0
1 -132 -143 0
1 -132 92 0
1 -134 -79 0
1 -134 -132 0
1 134 83 0
1 -134 -70 0
1 -134 142 0
1 134 91 0
1 134 144 0
1 134 81 0
1 134 -85 0
1 -134 -67 0
1 134 72 0
1 134 -143 0
1 -134 -92 0
1 135 -136 0
1 -135 83 0
1 135 -65 0
1 -135 145 0
1 -135 -70 0
1 -135 133 0
1 -135 -142 0
1 -135 -137 0
1 -135 -85 0
1 135 67 0
1 135 72 0
1 135 146 0
1 -133 -136 0
1 133 -83 0
1 133 -65 0
1 -133 70 0
1 -133 142 0
1 -133 147 0
1 133 -148 0
1 -133 -137 0
1 -133 85 0
1 -133 67 0
1 -133 -72 0
1 -133 -143 0
1 -133 135 0
1 -133 146 0
1 81 132 0
1 81 69 0
1 81 -66 0
1 81 62 0
1 -81 75 0
1 -81 134 0
1 81 36 0
1 -81 -137 0
1 81 -74 0
1 81 68 0
1 -81 64 0
1 -81 60 0
1 81 77 0
1 79 -132 0
1 79 -136 0
1 79 69 0
1 -79 66 0
1 -79 -59 0
1 -79 62 0
1 -79 75 0
1 -79 -134 0
1 79 81 0
1 79 -74 0
1 -79 -68 0
1 79 -64 0
1 -79 -60 0
1 -79 -77 0
1 -91 69 0
1 -91 66 0
1 91 -84 0
1 91 -80 0
1 -91 50 0
1 91 -134 0
1 -91 -148 0
1 91 -74 0
1 -91 68 0
1 -91 -86 0
1 -91 -82 0
1 91 77 0
1 91 92 0
1 -92 132 0
1 92 -69 0
1 92 -66 0
1 92 84 0
1 -92 80 0
1 -92 -75 0
1 -92 -91 0
1 -92 -134 0
1 92 74 0
1 92 68 0
1 -92 -86 0
1 -92 -82 0
1 -92 -77 0
1 -92 -52 0
1 -92 146 0
1 -66 79 0
1 66 83 0
1 66 -149 0
1 66 -150 0
1 66 88 0
1 66 91 0
1 -66 81 0
1 -66 85 0
1 66 -68 0
1 66 -151 0
1 -66 -101 0
1 -66 87 0
1 66 -92 0
1 68 -83 0
1 68 -66 0
1 -68 150 0
1 68 99 0
1 -68 -88 0
1 68 81 0
1 -68 57 0
1 68 85 0
1 -68 152 0
1 -68 -151 0
1 -68 101 0
1 68 87 0
1 -68 92 0
1 -69 79 0
1 -69 -54 0
1 -69 -83 0
1 69 -153 0
1 -69 150 0
1 69 154 0
1 -69 142 0
1 69 -91 0
1 -69 81 0
1 69 74 0
1 -69 85 0
1 69 151 0
1 69 -155 0
1 -74 79 0
1 -74 69 0
1 74 150 0
1 -74 154 0
1 -74 142 0
1 -74 91 0
1 74 81 0
1 74 -56 0
1 74 156 0
1 -74 -85 0
1 74 151 0
1 -74 155 0
1 -74 -143 0
1 74 92 0
1 88 84 0
1 88 -80 0
1 -88 -75 0
1 88 48 0
1 -88 -76 0
1 -88 -26 0
1 -88 68 0
1 88 -86 0
1 -88 82 0
1 88 -77 0
1 -88 -78 0
1 -88 -87 0
1 -88 30 0
1 87 -66 0
1 -87 84 0
1 -87 -80 0
1 -87 -75 0
1 87 78 0
1 87 88 0
1 -87 68 0
1 -87 86 0
1 87 82 0
1 -87 77 0
1 87 49 0
1 87 -143 0
1 -87 30 0
1 99 -66 0
1 -99 157 0
1 99 -84 0
1 99 80 0
1 -99 95 0
1 -99 -90 0
1 99 154 0
1 99 -158 0
1 99 26 0
1 99 86 0
1 99 -82 0
1 -99 101 0
1 -99 89 0
1 -99 -30 0
1 101 -84 0
1 -101 80 0
1 -101 99 0
1 101 -90 0
1 -101 158 0
1 101 -26 0
1 101 68 0
1 -101 97 0
1 101 157 0
1 -101 -155 0
1 -101 89 0
1 -101 -30 0
1 -80 -159 0
1 -80 -110 0
1 -80 -62 0
1 -80 160 0
1 80 -99 0
1 80 88 0
1 80 -91 0
1 80 -161 0
1 80 -111 0
1 -80 -101 0
1 -80 87 0
1 -80 92 0
1 82 159 0
1 -82 -110 0
1 -82 -94 0
1 -82 80 0
1 82 99 0
1 82 88 0
1 -82 91 0
1 82 161 0
1 82 111 0
1 82 60 0
1 -82 96 0
1 -82 162 0
1 -82 -101 0
1 82 -87 0
1 -82 92 0
1 -84 159 0
1 -84 59 0
1 -84 -163 0
1 84 -164 0
1 -84 150 0
1 -84 -99 0
1 -84 88 0
1 84 -91 0
1 -84 161 0
1 84 -86 0
1 -84 165 0
1 -84 151 0
1 84 101 0
1 -84 87 0
1 -84 -92 0
1 86 159 0
1 -86 166 0
1 86 -84 0
1 86 163 0
1 -86 150 0
1 -86 -99 0
1 86 -88 0
1 86 -91 0
1 -86 -161 0
1 86 165 0
1 86 151 0
1 86 101 0
1 86 -92 0
1 94 23 0
1 94 93 0
1 -94 -82 0
1 -94 80 0
1 94 150 0
1 -94 90 0
1 -94 -158 0
1 94 26 0
1 -94 20 0
1 94 45 0
1 94 96 0
1 94 157 0
1 -96 23 0
1 -96 93 0
1 -96 -80 0
1 -96 -90 0
1 96 -158 0
1 96 26 0
1 96 -45 0
1 96 -108 0
1 -96 -151 0
1 -96 157 0
1 96 -89 0
1 -96 30 0
1 -110 -98 0
1 -110 93 0
1 110 -103 0
1 110 -80 0
1 110 -90 0
1 110 -158 0
1 -110 100 0
1 -110 -167 0
1 110 -45 0
1 -110 -111 0
1 110 82 0
1 110 157 0
1 110 -89 0
1 110 102 0
1 -111 98 0
1 -111 93 0
1 -111 -110 0
1 111 80 0
1 111 90 0
1 111 158 0
1 111 100 0
1 111 -167 0
1 111 45 0
1 111 106 0
1 111 165 0
1 -111 157 0
1 -111 -89 0
1 -111 -102 0
1 158 168 0
1 -158 -116 0
1 -158 109 0
1 -158 110 0
1 -158 -94 0
1 -158 -99 0
1 -158 -76 0
1 158 -169 0
1 158 -170 0
1 -158 117 0
1 -158 105 0
1 -158 -111 0
1 158 -96 0
1 158 101 0
1 158 -89 0
1 89 168 0
1 89 -116 0
1 89 109 0
1 89 110 0
1 89 94 0
1 -89 -99 0
1 89 158 0
1 -89 170 0
1 89 -117 0
1 89 105 0
1 89 -111 0
1 -89 96 0
1 -89 101 0
1 -89 78 0
1 -89 171 0
1 -90 -168 0
1 90 172 0
1 -90 -159 0
1 90 110 0
1 90 -157 0
1 90 -99 0
1 -90 -173 0
1 -90 -170 0
1 -90 174 0
1 -90 -161 0
1 -90 -111 0
1 90 96 0
1 90 101 0
1 -157 -168 0
1 157 172 0
1 -157 -159 0
1 157 -110 0
1 157 94 0
1 157 -99 0
1 -157 -174 0
1 157 161 0
1 -157 111 0
1 157 96 0
1 157 -77 0
1 -157 -101 0
1 -109 93 0
1 109 -42 0
1 109 -159 0
1 -109 -53 0
1 -109 158 0
1 109 100 0
1 109 167 0
1 109 -105 0
1 -109 -45 0
1 109 -39 0
1 -109 51 0
1 109 -102 0
1 105 -98 0
1 -105 -93 0
1 -105 -109 0
1 -105 42 0
1 -105 53 0
1 -105 -158 0
1 -105 100 0
1 105 167 0
1 105 45 0
1 -105 161 0
1 105 51 0
1 105 -102 0
1 -116 98 0
1 116 -172 0
1 -116 112 0
1 -116 -175 0
1 -116 -158 0
1 -116 100 0
1 116 117 0
1 116 176 0
1 116 -107 0
1 116 -102 0
1 -117 -98 0
1 117 116 0
1 -117 -112 0
1 117 175 0
1 -117 53 0
1 -117 -158 0
1 -117 100 0
1 117 -174 0
1 117 -167 0
1 117 176 0
1 -117 -107 0
1 -117 51 0
1 117 89 0
1 167 -113 0
1 167 -98 0
1 167 -116 0
1 167 -110 0
1 -167 177 0
1 167 115 0
1 -167 -117 0
1 -167 20 0
1 -167 -105 0
1 -167 -111 0
1 167 -178 0
1 167 179 0
1 -98 113 0
1 98 -23 0
1 -98 -116 0
1 -98 109 0
1 -98 -110 0
1 -98 -180 0
1 98 -177 0
1 98 -115 0
1 98 167 0
1 -98 105 0
1 -98 111 0
1 98 -178 0
1 98 179 0
1 -100 -168 0
1 100 -116 0
1 -100 109 0
1 -100 -110 0
1 100 180 0
1 -100 181 0
1 -100 170 0
1 -100 -117 0
1 -100 -111 0
1 -100 -178 0
1 100 102 0
1 -102 -168 0
1 102 116 0
1 102 -109 0
1 102 110 0
1 102 -180 0
1 -102 181 0
1 -102 170 0
1 102 117 0
1 102 -100 0
1 -102 105 0
1 -102 -111 0
1 -102 -178 0
1 -102 -30 0
1 -102 -182 0
1 -113 168 0
1 -113 98 0
1 -113 112 0
1 113 -175 0
1 -113 53 0
1 113 47 0
1 113 115 0
1 113 167 0
1 -113 -176 0
1 113 107 0
1 113 -51 0
1 113 46 0
1 -115 -113 0
1 115 98 0
1 -115 -112 0
1 115 -175 0
1 -115 -53 0
1 -115 47 0
1 -115 -170 0
1 115 167 0
1 115 176 0
1 115 -107 0
1 -115 -51 0
1 -115 46 0
1 179 98 0
1 179 -112 0
1 -179 175 0
1 -179 -183 0
1 179 -184 0
1 179 177 0
1 179 -167 0
1 -179 176 0
1 179 -107 0
1 -179 118 0
1 179 -114 0
1 -179 -182 0
1 177 98 0
1 177 -112 0
1 177 -175 0
1 177 -183 0
1 177 -184 0
1 177 -181 0
1 177 167 0
1 -177 176 0
1 -177 107 0
1 177 118 0
1 -177 -114 0
1 177 -179 0
1 107 113 0
1 107 116 0
1 107 -175 0
1 -107 185 0
1 -107 186 0
1 -107 177 0
1 -107 115 0
1 107 -117 0
1 107 39 0
1 -107 187 0
1 -107 188 0
1 107 179 0
1 175 113 0
1 175 -116 0
1 175 42 0
1 175 -185 0
1 175 186 0
1 -175 -177 0
1 175 115 0
1 -175 117 0
1 175 187 0
1 -175 -179 0
1 -176 -113 0
1 176 -112 0
1 176 189 0
1 -176 -180 0
1 176 177 0
1 176 -115 0
1 -176 -117 0
1 -176 -45 0
1 -176 190 0
1 -176 178 0
1 112 -113 0
1 112 116 0
1 112 93 0
1 -112 -189 0
1 -112 180 0
1 112 -177 0
1 112 115 0
1 112 -117 0
1 112 -176 0
1 -112 190 0
1 -112 178 0
1 112 179 0
1 188 175 0
1 -188 -183 0
1 188 184 0
1 188 -186 0
1 -188 107 0
1 -188 118 0
1 188 114 0
1 -188 -178 0
1 -186 -175 0
1 -186 183 0
1 186 -180 0
1 -186 107 0
1 186 -118 0
1 -186 188 0
1 -187 -175 0
1 -187 183 0
1 187 185 0
1 187 184 0
1 187 -118 0
1 -187 -114 0
1 187 -190 0
1 185 114 0
1 -185 183 0
1 -185 -184 0
1 185 -189 0
1 -185 -107 0
1 -185 -187 0
1 114 185 0
1 -114 -184 0
1 114 177 0
1 114 -46 0
1 -114 187 0
1 114 -188 0
1 -114 179 0
1 -184 114 0
1 -184 -47 0
1 -184 -185 0
1 184 186 0
1 184 177 0
1 -184 -187 0
1 -184 188 0
1 184 179 0
1 -118 -183 0
1 118 -185 0
1 -118 186 0
1 -118 177 0
1 -118 51 0
1 118 187 0
1 -118 -188 0
1 -118 -179 0
1 -183 53 0
1 -183 -185 0
1 183 -186 0
1 183 177 0
1 -183 -118 0
1 -183 188 0
1 183 179 0
1 137 -136 0
1 137 131 0
1 -137 -129 0
1 -137 127 0
1 -137 -124 0
1 -137 133 0
1 137 81 0
1 137 -130 0
1 137 128 0
1 137 -125 0
1 -137 -126 0
1 -137 135 0
1 -136 79 0
1 -136 -131 0
1 -136 -129 0
1 -136 127 0
1 -136 124 0
1 136 133 0
1 136 -137 0
1 -136 -125 0
1 136 -126 0
1 136 -135 0
1 -148 -131 0
1 -148 -129 0
1 148 140 0
1 148 138 0
1 148 133 0
1 -148 -91 0
1 148 130 0
1 -148 128 0
1 -148 -139 0
1 -148 191 0
1 -148 -146 0
1 -146 -131 0
1 146 129 0
1 -146 -140 0
1 -146 138 0
1 146 -133 0
1 -146 -148 0
1 -146 130 0
1 -146 128 0
1 146 139 0
1 -146 191 0
1 -146 -92 0
1 -128 136 0
1 -128 129 0
1 128 154 0
1 -128 -142 0
1 -128 192 0
1 -128 -148 0
1 -128 -137 0
1 -128 -123 0
1 128 -155 0
1 128 -143 0
1 128 -146 0
1 129 -120 0
1 129 -193 0
1 -129 142 0
1 -129 -148 0
1 129 155 0
1 129 -143 0
1 -129 -146 0
1 -130 -131 0
1 130 148 0
1 130 -137 0
1 -130 -122 0
1 -130 194 0
1 -131 -136 0
1 131 -119 0
1 -131 -148 0
1 -131 -137 0
1 -131 130 0
1 131 -146 0
1 142 132 0
1 142 129 0
1 -142 140 0
1 142 138 0
1 -142 -88 0
1 -142 133 0
1 -142 -74 0
1 142 128 0
1 -142 139 0
1 142 -191 0
1 142 -143 0
1 -142 135 0
1 -143 132 0
1 143 -135 0
1 -143 -69 0
1 143 129 0
1 -143 140 0
1 143 138 0
1 143 133 0
1 -143 -142 0
1 -143 -134 0
1 -143 -74 0
1 -143 -128 0
1 -143 -87 0
1 143 191 0
1 154 141 0
1 -154 69 0
1 154 129 0
1 154 140 0
1 -154 -99 0
1 154 -147 0
1 154 -144 0
1 154 -74 0
1 -154 139 0
1 154 -128 0
1 -154 -155 0
1 154 -191 0
1 154 -145 0
1 155 -141 0
1 155 -69 0
1 -155 -129 0
1 155 -140 0
1 -155 154 0
1 155 147 0
1 155 -74 0
1 155 -128 0
1 -155 101 0
1 155 -139 0
1 -155 -191 0
1 -155 -145 0
1 -191 -195 0
1 191 -163 0
1 191 150 0
1 191 138 0
1 191 -142 0
1 191 -148 0
1 191 196 0
1 -191 -165 0
1 -191 151 0
1 -191 -155 0
1 -191 -126 0
1 191 -143 0
1 -191 197 0
1 -191 -146 0
1 138 195 0
1 -138 150 0
1 -138 -124 0
1 138 154 0
1 -138 198 0
1 138 142 0
1 -138 148 0
1 138 196 0
1 -138 -165 0
1 -138 -151 0
1 -138 -155 0
1 138 -191 0
1 -138 -143 0
1 -138 146 0
1 139 -195 0
1 139 140 0
1 -139 -154 0
1 139 142 0
1 -139 -125 0
1 -139 -148 0
1 139 196 0
1 -139 155 0
1 -139 199 0
1 -139 143 0
1 -139 146 0
1 140 -195 0
1 -140 154 0
1 -140 200 0
1 -140 -142 0
1 -140 148 0
1 -140 139 0
1 140 -196 0
1 -140 155 0
1 140 143 0
1 -140 146 0
1 150 -141 0
1 150 69 0
1 -150 66 0
1 -150 -84 0
1 -150 94 0
1 -150 -138 0
1 -150 147 0
1 150 144 0
1 -150 -74 0
1 150 68 0
1 150 86 0
1 -150 151 0
1 150 -191 0
1 -150 -145 0
1 -151 -66 0
1 151 -84 0
1 -151 150 0
1 151 138 0
1 -151 -147 0
1 151 144 0
1 151 74 0
1 151 68 0
1 151 -86 0
1 151 96 0
1 -151 191 0
1 151 145 0
1 163 -153 0
1 163 84 0
1 163 110 0
1 163 -138 0
1 163 147 0
1 -163 -144 0
1 163 -156 0
1 -163 152 0
1 163 86 0
1 -163 -165 0
1 163 -191 0
1 -163 145 0
1 165 -153 0
1 165 149 0
1 165 84 0
1 165 -163 0
1 165 -138 0
1 165 147 0
1 -165 144 0
1 -165 156 0
1 165 -86 0
1 165 111 0
1 165 191 0
1 165 -145 0
1 -141 132 0
1 -141 201 0
1 141 172 0
1 141 -202 0
1 141 159 0
1 141 163 0
1 141 150 0
1 -141 154 0
1 -141 144 0
1 141 -203 0
1 -141 174 0
1 141 -161 0
1 -141 -165 0
1 141 155 0
1 144 -141 0
1 144 -201 0
1 -144 -172 0
1 144 159 0
1 -144 163 0
1 -144 150 0
1 144 -154 0
1 -144 -134 0
1 144 203 0
1 144 -174 0
1 144 -204 0
1 -144 161 0
1 144 165 0
1 144 -151 0
1 -144 155 0
1 145 -205 0
1 145 -201 0
1 -145 206 0
1 145 -163 0
1 -145 150 0
1 -145 154 0
1 145 -147 0
1 -145 203 0
1 -145 207 0
1 145 196 0
1 -145 -165 0
1 145 151 0
1 -145 155 0
1 145 -135 0
1 -147 -201 0
1 -147 -206 0
1 147 -195 0
1 -147 163 0
1 -147 150 0
1 -147 154 0
1 -147 -133 0
1 147 208 0
1 -147 203 0
1 -147 -207 0
1 -147 -196 0
1 -147 165 0
1 147 -151 0
1 -147 155 0
1 -147 145 0
1 159 109 0
1 159 -195 0
1 159 84 0
1 -159 149 0
1 159 -80 0
1 -159 90 0
1 -159 144 0
1 -159 -156 0
1 159 -161 0
1 -159 -152 0
1 159 -86 0
1 -159 -82 0
1 -159 157 0
1 -161 153 0
1 -161 -149 0
1 -161 -84 0
1 161 80 0
1 -161 -90 0
1 -161 -144 0
1 -161 -156 0
1 161 196 0
1 161 -86 0
1 -161 82 0
1 161 -157 0
1 172 -141 0
1 -172 -153 0
1 -172 149 0
1 172 164 0
1 172 160 0
1 -172 90 0
1 -172 -144 0
1 -172 -174 0
1 -172 -152 0
1 -172 166 0
1 -172 -162 0
1 172 -157 0
1 -174 -141 0
1 -174 -172 0
1 -174 164 0
1 -174 160 0
1 174 90 0
1 174 144 0
1 -174 -117 0
1 -174 207 0
1 174 -152 0
1 -174 166 0
1 -174 162 0
1 174 -157 0
1 -149 168 0
1 149 -172 0
1 -149 -159 0
1 149 66 0
1 149 -209 0
1 149 181 0
1 149 -170 0
1 149 174 0
1 -149 161 0
1 -149 -152 0
1 -149 -165 0
1 149 -182 0
1 -152 168 0
1 -152 172 0
1 152 -159 0
1 -152 -149 0
1 -152 -163 0
1 -152 209 0
1 152 181 0
1 -152 170 0
1 -152 -174 0
1 152 -161 0
1 152 -68 0
1 -152 -165 0
1 152 -182 0
1 -153 -210 0
1 153 -201 0
1 -153 172 0
1 153 69 0
1 -153 159 0
1 153 -163 0
1 -153 -209 0
1 -153 -211 0
1 -153 203 0
1 153 174 0
1 -153 156 0
1 153 -161 0
1 153 165 0
1 156 210 0
1 156 -201 0
1 156 -172 0
1 156 153 0
1 156 -159 0
1 156 163 0
1 156 209 0
1 -156 -211 0
1 156 -203 0
1 -156 74 0
1 156 -161 0
1 -156 -165 0
1 168 -113 0
1 -168 201 0
1 168 -149 0
1 168 164 0
1 168 160 0
1 168 90 0
1 -168 -158 0
1 -168 100 0
1 -168 -152 0
1 168 -166 0
1 -168 162 0
1 168 157 0
1 -168 89 0
1 168 -102 0
1 -170 -149 0
1 -170 164 0
1 -170 160 0
1 170 90 0
1 -170 -158 0
1 -170 -115 0
1 170 100 0
1 -170 203 0
1 -170 152 0
1 -170 -162 0
1 170 157 0
1 170 89 0
1 170 -102 0
1 -182 210 0
1 182 -149 0
1 -182 -164 0
1 -182 160 0
1 182 -173 0
1 -182 181 0
1 -182 169 0
1 -182 -100 0
1 -182 152 0
1 -182 -166 0
1 182 -162 0
1 -182 -212 0
1 -182 171 0
1 -182 179 0
1 -181 -149 0
1 181 164 0
1 -181 -160 0
1 -181 -182 0
1 181 173 0
1 -181 177 0
1 181 169 0
1 -181 211 0
1 -181 100 0
1 181 152 0
1 181 -166 0
1 181 -162 0
1 -181 -212 0
1 181 171 0
1 -181 -102 0
1 -160 168 0
1 -160 -172 0
1 160 -162 0
1 -160 80 0
1 160 189 0
1 -160 -180 0
1 160 -170 0
1 160 174 0
1 -160 190 0
1 160 -178 0
1 160 -182 0
1 -162 -172 0
1 -162 160 0
1 162 -180 0
1 162 -181 0
1 -162 170 0
1 162 82 0
1 -162 178 0
1 164 172 0
1 -164 84 0
1 -164 213 0
1 -164 -209 0
1 -164 -181 0
1 -164 -170 0
1 -164 214 0
1 -164 182 0
1 -166 -168 0
1 -166 -172 0
1 -166 -164 0
1 166 -213 0
1 166 -209 0
1 166 -181 0
1 -166 -170 0
1 -166 174 0
1 -166 86 0
1 166 214 0
1 -178 98 0
1 178 -112 0
1 178 160 0
1 -178 180 0
1 178 173 0
1 178 169 0
1 178 167 0
1 178 176 0
1 -178 162 0
1 -178 212 0
1 178 188 0
1 -178 171 0
1 -178 102 0
1 -180 98 0
1 180 -112 0
1 180 -186 0
1 180 -173 0
1 180 209 0
1 180 169 0
1 -180 -100 0
1 180 167 0
1 -180 176 0
1 -180 171 0
1 -180 162 0
1 180 212 0
1 -180 178 0
1 180 102 0
1 190 -112 0
1 190 -189 0
1 -190 160 0
1 -190 -173 0
1 -190 169 0
1 190 -176 0
1 -190 162 0
1 190 187 0
1 190 -212 0
1 190 214 0
1 -190 171 0
1 189 -112 0
1 -189 185 0
1 -189 160 0
1 189 -213 0
1 -189 173 0
1 189 -212 0
1 189 -176 0
1 189 162 0
1 189 -190 0
1 -189 -171 0
1 -169 189 0
1 169 -180 0
1 169 -158 0
1 -169 -181 0
1 169 171 0
1 -169 190 0
1 169 -178 0
1 -169 182 0
1 -171 -189 0
1 -171 180 0
1 -171 181 0
1 -171 -169 0
1 -171 -89 0
1 171 -178 0
1 173 189 0
1 173 -90 0
1 -173 180 0
1 173 181 0
1 -173 212 0
1 -173 182 0
1 212 189 0
1 212 -180 0
1 212 -181 0
1 212 -157 0
1 212 190 0
1 -212 178 0
1 212 182 0
1 -195 159 0
1 195 215 0
1 -195 -193 0
1 195 140 0
1 -195 -138 0
1 -195 147 0
1 -195 196 0
1 195 194 0
1 195 -192 0
1 195 139 0
1 195 145 0
1 -196 -195 0
1 -196 215 0
1 196 193 0
1 196 -140 0
1 -196 147 0
1 -196 -161 0
1 196 -194 0
1 196 192 0
1 196 139 0
1 -196 191 0
1 -196 145 0
1 206 215 0
1 206 193 0
1 206 -200 0
1 -206 -198 0
1 206 147 0
1 -206 -194 0
1 206 -192 0
1 -206 199 0
1 -206 197 0
1 -206 145 0
1 207 -206 0
1 207 215 0
1 -207 193 0
1 207 200 0
1 -207 -147 0
1 207 -174 0
1 207 194 0
1 -207 -192 0
1 207 -199 0
1 -207 197 0
1 207 145 0
1 192 210 0
1 192 201 0
1 192 206 0
1 -192 -195 0
1 192 193 0
1 192 -211 0
1 -192 -207 0
1 -192 196 0
1 192 128 0
1 -193 -210 0
1 -193 -201 0
1 -193 206 0
1 -193 195 0
1 -193 129 0
1 -193 -211 0
1 -193 203 0
1 193 -207 0
1 -193 196 0
1 -193 192 0
1 -194 206 0
1 194 195 0
1 -194 215 0
1 194 -207 0
1 194 196 0
1 194 130 0
1 -215 206 0
1 -215 195 0
1 -215 -194 0
1 215 131 0
1 215 -207 0
1 -215 -196 0
1 201 168 0
1 -201 141 0
1 -201 153 0
1 201 193 0
1 -201 -200 0
1 -201 -198 0
1 -201 147 0
1 -201 -144 0
1 201 203 0
1 201 -156 0
1 201 192 0
1 201 199 0
1 -201 -197 0
1 -201 -145 0
1 203 -141 0
1 -203 201 0
1 203 153 0
1 -203 193 0
1 -203 200 0
1 -203 -198 0
1 -203 147 0
1 -203 -170 0
1 203 -144 0
1 203 156 0
1 -203 192 0
1 -203 -199 0
1 203 197 0
1 -203 145 0
1 210 -205 0
1 -210 202 0
1 -210 -153 0
1 210 193 0
1 210 198 0
1 210 211 0
1 -210 204 0
1 210 192 0
1 -210 199 0
1 210 -182 0
1 -211 -210 0
1 211 -202 0
1 -211 153 0
1 211 193 0
1 211 -198 0
1 211 181 0
1 211 -208 0
1 211 204 0
1 211 -156 0
1 211 192 0
1 211 199 0
1 -211 -197 0
1 -197 -210 0
1 -197 201 0
1 -197 -206 0
1 -197 213 0
1 -197 -198 0
1 -197 211 0
1 -197 203 0
1 -197 207 0
1 197 -214 0
1 -197 191 0
1 -198 -210 0
1 198 -201 0
1 198 206 0
1 198 213 0
1 -198 138 0
1 -198 209 0
1 -198 -211 0
1 198 -207 0
1 -198 214 0
1 198 -197 0
1 199 -210 0
1 199 -201 0
1 199 206 0
1 -199 200 0
1 -199 211 0
1 199 203 0
1 199 -207 0
1 199 139 0
1 -200 210 0
1 200 -201 0
1 -200 206 0
1 -200 140 0
1 -200 211 0
1 -200 -203 0
1 -200 -207 0
1 -200 -199 0
1 209 205 0
1 209 -202 0
1 -209 153 0
1 209 149 0
1 -209 -164 0
1 -209 -198 0
1 -209 208 0
1 -209 -204 0
1 -209 156 0
1 -209 152 0
1 209 -166 0
1 -209 197 0
1 -214 -164 0
1 -214 -213 0
1 -214 -198 0
1 -214 208 0
1 -214 -204 0
1 214 -166 0
1 -214 190 0
1 -214 197 0
1 -213 202 0
1 213 164 0
1 213 -189 0
1 -213 -208 0
1 213 -204 0
1 -213 166 0
1 213 -214 0
1 -213 -197 0
1 202 210 0
1 202 141 0
1 -202 213 0
1 202 209 0
1 202 211 0
1 202 -204 0
1 -204 -210 0
1 204 202 0
1 204 -209 0
1 204 -211 0
1 -204 -144 0
1 -204 214 0
1 -205 210 0
1 -205 -213 0
1 205 209 0
1 205 211 0
1 205 -208 0
1 -205 -214 0
1 -205 145 0
1 -208 -210 0
1 208 205 0
1 208 -213 0
1 208 -209 0
1 -208 -147 0
1 208 211 0
